n_res = 4;
rc = [ 19, 19, 19, 18 ];
n_tasks = 30;
d = [ 10, 3, 4, 4, 4, 9, 10, 6, 1, 6, 4, 4, 2, 1, 6, 8, 10, 5, 6, 5, 8, 8, 10, 7, 1, 8, 6, 6, 5, 5 ];
rr = [| 6, 10, 0, 0, 1, 9, 0, 0, 0, 0, 2, 7, 6, 1, 0, 0, 10, 10, 0, 2, 6, 1, 0, 0, 7, 1, 0, 10, 5, 8
      | 0, 6, 9, 0, 0, 0, 10, 0, 6, 0, 7, 0, 0, 7, 8, 4, 0, 0, 6, 0, 0, 0, 10, 8, 8, 0, 2, 0, 7, 0
      | 0, 0, 10, 1, 9, 0, 0, 6, 0, 6, 4, 0, 4, 10, 0, 10, 3, 8, 0, 0, 0, 0, 0, 5, 5, 0, 0, 0, 6, 10
      | 8, 0, 10, 0, 4, 0, 0, 7, 0, 0, 0, 0, 0, 9, 4, 0, 0, 2, 7, 0, 7, 0, 0, 9, 7, 4, 8, 2, 0, 0 |];
suc = [ { 2 }, 
        { 1 }, 
        { 4 }, 
        { 3 }, 
        { 6 }, 
        { 5 }, 
        { 8 }, 
        { 7 }, 
        { 10 }, 
        { 9 }, 
        { 12 }, 
        { 11 }, 
        { 14 }, 
        { 13 }, 
        { 16 }, 
        { 15 }, 
        { 18 }, 
        { 17 }, 
        { 20 }, 
        { 19 }, 
        { 22 }, 
        { 21 }, 
        { 24 }, 
        { 23 }, 
        { 26 }, 
        { 25 }, 
        { 28 }, 
        { 27 }, 
        { 30 }, 
        { 29 }]; 
